(declare-sort Loc 0)
(declare-const l0 Loc)
(declare-const l1 Loc)
(declare-const l2 Loc)
(declare-const l3 Loc)
(declare-const l4 Loc)
(declare-const l5 Loc)
(declare-const l6 Loc)
(declare-const l7 Loc)
(declare-const l8 Loc)
(declare-const l9 Loc)
(declare-const l10 Loc)
(declare-const l11 Loc)
(declare-const l12 Loc)
(declare-const l13 Loc)
(declare-const l14 Loc)
(declare-const l15 Loc)
(declare-const l16 Loc)
(assert (distinct l0 l1 l2 l3 l4 l5 l6 l7 l8 l9 l10 l11 l12 l13 l14 l15 l16))

(define-fun cfg_init ( (pc Loc) (src Loc) (rel Bool) ) Bool
  (and (= pc src) rel))

(define-fun cfg_trans2 ( (pc Loc) (src Loc)
                         (pc1 Loc) (dst Loc)
                         (rel Bool) ) Bool
  (and (= pc src) (= pc1 dst) rel))

(define-fun cfg_trans3 ( (pc Loc) (exit Loc)
                         (pc1 Loc) (call Loc)
                         (pc2 Loc) (return Loc)
                         (rel Bool) ) Bool
  (and (= pc exit) (= pc1 call) (= pc2 return) rel))

(define-fun init_main ( (pc^0 Loc) (Index15^0 Int) (Inner14^0 Int) (InnerIndex6^0 Int) (InnerIndex9^0 Int) (Outer13^0 Int) (OuterIndex5^0 Int) (OuterIndex8^0 Int) (Seed^0 Int) (ret_RandomInteger16^0 Int) (ret_RandomInteger17^0 Int) ) Bool
  (cfg_init pc^0 l16 true))

(define-fun next_main (
                 (pc^0 Loc) (Index15^0 Int) (Inner14^0 Int) (InnerIndex6^0 Int) (InnerIndex9^0 Int) (Outer13^0 Int) (OuterIndex5^0 Int) (OuterIndex8^0 Int) (Seed^0 Int) (ret_RandomInteger16^0 Int) (ret_RandomInteger17^0 Int)
                 (pc^post Loc) (Index15^post Int) (Inner14^post Int) (InnerIndex6^post Int) (InnerIndex9^post Int) (Outer13^post Int) (OuterIndex5^post Int) (OuterIndex8^post Int) (Seed^post Int) (ret_RandomInteger16^post Int) (ret_RandomInteger17^post Int)
             ) Bool
  (or
    (cfg_trans2 pc^0 l0 pc^post l1 (and (and (and (and (and (and (and (and (and (= Index15^0 Index15^post) (= Inner14^0 Inner14^post)) (= InnerIndex6^0 InnerIndex6^post)) (= InnerIndex9^0 InnerIndex9^post)) (= Outer13^0 Outer13^post)) (= OuterIndex5^0 OuterIndex5^post)) (= OuterIndex8^0 OuterIndex8^post)) (= Seed^0 Seed^post)) (= ret_RandomInteger16^0 ret_RandomInteger16^post)) (= ret_RandomInteger17^0 ret_RandomInteger17^post)))
    (cfg_trans2 pc^0 l2 pc^post l3 (and (and (and (and (and (and (and (and (and (= Index15^0 Index15^post) (= Inner14^0 Inner14^post)) (= InnerIndex6^0 InnerIndex6^post)) (= InnerIndex9^0 InnerIndex9^post)) (= Outer13^0 Outer13^post)) (= OuterIndex5^0 OuterIndex5^post)) (= OuterIndex8^0 OuterIndex8^post)) (= Seed^0 Seed^post)) (= ret_RandomInteger16^0 ret_RandomInteger16^post)) (= ret_RandomInteger17^0 ret_RandomInteger17^post)))
    (cfg_trans2 pc^0 l4 pc^post l5 (and (and (and (and (and (and (and (and (and (= Index15^0 Index15^post) (= Inner14^0 Inner14^post)) (= InnerIndex6^0 InnerIndex6^post)) (= InnerIndex9^0 InnerIndex9^post)) (= Outer13^0 Outer13^post)) (= OuterIndex5^0 OuterIndex5^post)) (= OuterIndex8^0 OuterIndex8^post)) (= Seed^0 Seed^post)) (= ret_RandomInteger16^0 ret_RandomInteger16^post)) (= ret_RandomInteger17^0 ret_RandomInteger17^post)))
    (cfg_trans2 pc^0 l6 pc^post l7 (and (and (and (and (and (and (and (and (and (and (<= 20 (+ 0 Index15^0)) (= Inner14^post (+ 1 Inner14^0))) (= Index15^0 Index15^post)) (= InnerIndex6^0 InnerIndex6^post)) (= InnerIndex9^0 InnerIndex9^post)) (= Outer13^0 Outer13^post)) (= OuterIndex5^0 OuterIndex5^post)) (= OuterIndex8^0 OuterIndex8^post)) (= Seed^0 Seed^post)) (= ret_RandomInteger16^0 ret_RandomInteger16^post)) (= ret_RandomInteger17^0 ret_RandomInteger17^post)))
    (cfg_trans2 pc^0 l6 pc^post l8 (and (and (and (and (and (and (and (and (and (and (<= (+ 1 Index15^0) 20) (= Index15^post (+ 1 Index15^0))) (= Inner14^0 Inner14^post)) (= InnerIndex6^0 InnerIndex6^post)) (= InnerIndex9^0 InnerIndex9^post)) (= Outer13^0 Outer13^post)) (= OuterIndex5^0 OuterIndex5^post)) (= OuterIndex8^0 OuterIndex8^post)) (= Seed^0 Seed^post)) (= ret_RandomInteger16^0 ret_RandomInteger16^post)) (= ret_RandomInteger17^0 ret_RandomInteger17^post)))
    (cfg_trans2 pc^0 l9 pc^post l10 (and (and (and (and (and (and (and (and (and (and (<= 20 (+ 0 Inner14^0)) (= Outer13^post (+ 1 Outer13^0))) (= Index15^0 Index15^post)) (= Inner14^0 Inner14^post)) (= InnerIndex6^0 InnerIndex6^post)) (= InnerIndex9^0 InnerIndex9^post)) (= OuterIndex5^0 OuterIndex5^post)) (= OuterIndex8^0 OuterIndex8^post)) (= Seed^0 Seed^post)) (= ret_RandomInteger16^0 ret_RandomInteger16^post)) (= ret_RandomInteger17^0 ret_RandomInteger17^post)))
    (cfg_trans2 pc^0 l9 pc^post l8 (and (and (and (and (and (and (and (and (and (and (<= (+ 1 Inner14^0) 20) (= Index15^post 0)) (= Inner14^0 Inner14^post)) (= InnerIndex6^0 InnerIndex6^post)) (= InnerIndex9^0 InnerIndex9^post)) (= Outer13^0 Outer13^post)) (= OuterIndex5^0 OuterIndex5^post)) (= OuterIndex8^0 OuterIndex8^post)) (= Seed^0 Seed^post)) (= ret_RandomInteger16^0 ret_RandomInteger16^post)) (= ret_RandomInteger17^0 ret_RandomInteger17^post)))
    (cfg_trans2 pc^0 l11 pc^post l12 (and (and (and (and (and (and (and (and (and (and (<= 20 (+ 0 Outer13^0)) (= Index15^0 Index15^post)) (= Inner14^0 Inner14^post)) (= InnerIndex6^0 InnerIndex6^post)) (= InnerIndex9^0 InnerIndex9^post)) (= Outer13^0 Outer13^post)) (= OuterIndex5^0 OuterIndex5^post)) (= OuterIndex8^0 OuterIndex8^post)) (= Seed^0 Seed^post)) (= ret_RandomInteger16^0 ret_RandomInteger16^post)) (= ret_RandomInteger17^0 ret_RandomInteger17^post)))
    (cfg_trans2 pc^0 l11 pc^post l7 (and (and (and (and (and (and (and (and (and (and (<= (+ 1 Outer13^0) 20) (= Inner14^post 0)) (= Index15^0 Index15^post)) (= InnerIndex6^0 InnerIndex6^post)) (= InnerIndex9^0 InnerIndex9^post)) (= Outer13^0 Outer13^post)) (= OuterIndex5^0 OuterIndex5^post)) (= OuterIndex8^0 OuterIndex8^post)) (= Seed^0 Seed^post)) (= ret_RandomInteger16^0 ret_RandomInteger16^post)) (= ret_RandomInteger17^0 ret_RandomInteger17^post)))
    (cfg_trans2 pc^0 l13 pc^post l14 (and (and (and (and (and (and (and (and (and (= Index15^0 Index15^post) (= Inner14^0 Inner14^post)) (= InnerIndex6^0 InnerIndex6^post)) (= InnerIndex9^0 InnerIndex9^post)) (= Outer13^0 Outer13^post)) (= OuterIndex5^0 OuterIndex5^post)) (= OuterIndex8^0 OuterIndex8^post)) (= Seed^0 Seed^post)) (= ret_RandomInteger16^0 ret_RandomInteger16^post)) (= ret_RandomInteger17^0 ret_RandomInteger17^post)))
    (cfg_trans2 pc^0 l10 pc^post l11 (and (and (and (and (and (and (and (and (and (= Index15^0 Index15^post) (= Inner14^0 Inner14^post)) (= InnerIndex6^0 InnerIndex6^post)) (= InnerIndex9^0 InnerIndex9^post)) (= Outer13^0 Outer13^post)) (= OuterIndex5^0 OuterIndex5^post)) (= OuterIndex8^0 OuterIndex8^post)) (= Seed^0 Seed^post)) (= ret_RandomInteger16^0 ret_RandomInteger16^post)) (= ret_RandomInteger17^0 ret_RandomInteger17^post)))
    (cfg_trans2 pc^0 l14 pc^post l4 (and (and (and (and (and (and (and (and (and (and (<= 20 (+ 0 InnerIndex9^0)) (= OuterIndex8^post (+ 1 OuterIndex8^0))) (= Index15^0 Index15^post)) (= Inner14^0 Inner14^post)) (= InnerIndex6^0 InnerIndex6^post)) (= InnerIndex9^0 InnerIndex9^post)) (= Outer13^0 Outer13^post)) (= OuterIndex5^0 OuterIndex5^post)) (= Seed^0 Seed^post)) (= ret_RandomInteger16^0 ret_RandomInteger16^post)) (= ret_RandomInteger17^0 ret_RandomInteger17^post)))
    (cfg_trans2 pc^0 l14 pc^post l13 (and (and (and (and (and (and (and (and (and (and (<= (+ 1 InnerIndex9^0) 20) (= Seed^post Seed^post)) (= ret_RandomInteger17^post (+ 0 Seed^post))) (= InnerIndex9^post (+ 1 InnerIndex9^0))) (= Index15^0 Index15^post)) (= Inner14^0 Inner14^post)) (= InnerIndex6^0 InnerIndex6^post)) (= Outer13^0 Outer13^post)) (= OuterIndex5^0 OuterIndex5^post)) (= OuterIndex8^0 OuterIndex8^post)) (= ret_RandomInteger16^0 ret_RandomInteger16^post)))
    (cfg_trans2 pc^0 l5 pc^post l10 (and (and (and (and (and (and (and (and (and (and (<= 20 (+ 0 OuterIndex8^0)) (= Outer13^post 0)) (= Index15^0 Index15^post)) (= Inner14^0 Inner14^post)) (= InnerIndex6^0 InnerIndex6^post)) (= InnerIndex9^0 InnerIndex9^post)) (= OuterIndex5^0 OuterIndex5^post)) (= OuterIndex8^0 OuterIndex8^post)) (= Seed^0 Seed^post)) (= ret_RandomInteger16^0 ret_RandomInteger16^post)) (= ret_RandomInteger17^0 ret_RandomInteger17^post)))
    (cfg_trans2 pc^0 l5 pc^post l13 (and (and (and (and (and (and (and (and (and (and (<= (+ 1 OuterIndex8^0) 20) (= InnerIndex9^post 0)) (= Index15^0 Index15^post)) (= Inner14^0 Inner14^post)) (= InnerIndex6^0 InnerIndex6^post)) (= Outer13^0 Outer13^post)) (= OuterIndex5^0 OuterIndex5^post)) (= OuterIndex8^0 OuterIndex8^post)) (= Seed^0 Seed^post)) (= ret_RandomInteger16^0 ret_RandomInteger16^post)) (= ret_RandomInteger17^0 ret_RandomInteger17^post)))
    (cfg_trans2 pc^0 l7 pc^post l9 (and (and (and (and (and (and (and (and (and (= Index15^0 Index15^post) (= Inner14^0 Inner14^post)) (= InnerIndex6^0 InnerIndex6^post)) (= InnerIndex9^0 InnerIndex9^post)) (= Outer13^0 Outer13^post)) (= OuterIndex5^0 OuterIndex5^post)) (= OuterIndex8^0 OuterIndex8^post)) (= Seed^0 Seed^post)) (= ret_RandomInteger16^0 ret_RandomInteger16^post)) (= ret_RandomInteger17^0 ret_RandomInteger17^post)))
    (cfg_trans2 pc^0 l8 pc^post l6 (and (and (and (and (and (and (and (and (and (= Index15^0 Index15^post) (= Inner14^0 Inner14^post)) (= InnerIndex6^0 InnerIndex6^post)) (= InnerIndex9^0 InnerIndex9^post)) (= Outer13^0 Outer13^post)) (= OuterIndex5^0 OuterIndex5^post)) (= OuterIndex8^0 OuterIndex8^post)) (= Seed^0 Seed^post)) (= ret_RandomInteger16^0 ret_RandomInteger16^post)) (= ret_RandomInteger17^0 ret_RandomInteger17^post)))
    (cfg_trans2 pc^0 l3 pc^post l0 (and (and (and (and (and (and (and (and (and (and (<= 20 (+ 0 InnerIndex6^0)) (= OuterIndex5^post (+ 1 OuterIndex5^0))) (= Index15^0 Index15^post)) (= Inner14^0 Inner14^post)) (= InnerIndex6^0 InnerIndex6^post)) (= InnerIndex9^0 InnerIndex9^post)) (= Outer13^0 Outer13^post)) (= OuterIndex8^0 OuterIndex8^post)) (= Seed^0 Seed^post)) (= ret_RandomInteger16^0 ret_RandomInteger16^post)) (= ret_RandomInteger17^0 ret_RandomInteger17^post)))
    (cfg_trans2 pc^0 l3 pc^post l2 (and (and (and (and (and (and (and (and (and (and (<= (+ 1 InnerIndex6^0) 20) (= Seed^post Seed^post)) (= ret_RandomInteger16^post (+ 0 Seed^post))) (= InnerIndex6^post (+ 1 InnerIndex6^0))) (= Index15^0 Index15^post)) (= Inner14^0 Inner14^post)) (= InnerIndex9^0 InnerIndex9^post)) (= Outer13^0 Outer13^post)) (= OuterIndex5^0 OuterIndex5^post)) (= OuterIndex8^0 OuterIndex8^post)) (= ret_RandomInteger17^0 ret_RandomInteger17^post)))
    (cfg_trans2 pc^0 l1 pc^post l4 (and (and (and (and (and (and (and (and (and (and (<= 20 (+ 0 OuterIndex5^0)) (= OuterIndex8^post 0)) (= Index15^0 Index15^post)) (= Inner14^0 Inner14^post)) (= InnerIndex6^0 InnerIndex6^post)) (= InnerIndex9^0 InnerIndex9^post)) (= Outer13^0 Outer13^post)) (= OuterIndex5^0 OuterIndex5^post)) (= Seed^0 Seed^post)) (= ret_RandomInteger16^0 ret_RandomInteger16^post)) (= ret_RandomInteger17^0 ret_RandomInteger17^post)))
    (cfg_trans2 pc^0 l1 pc^post l2 (and (and (and (and (and (and (and (and (and (and (<= (+ 1 OuterIndex5^0) 20) (= InnerIndex6^post 0)) (= Index15^0 Index15^post)) (= Inner14^0 Inner14^post)) (= InnerIndex9^0 InnerIndex9^post)) (= Outer13^0 Outer13^post)) (= OuterIndex5^0 OuterIndex5^post)) (= OuterIndex8^0 OuterIndex8^post)) (= Seed^0 Seed^post)) (= ret_RandomInteger16^0 ret_RandomInteger16^post)) (= ret_RandomInteger17^0 ret_RandomInteger17^post)))
    (cfg_trans2 pc^0 l15 pc^post l0 (and (and (and (and (and (and (and (and (and (= Seed^post 0) (= OuterIndex5^post 0)) (= Index15^0 Index15^post)) (= Inner14^0 Inner14^post)) (= InnerIndex6^0 InnerIndex6^post)) (= InnerIndex9^0 InnerIndex9^post)) (= Outer13^0 Outer13^post)) (= OuterIndex8^0 OuterIndex8^post)) (= ret_RandomInteger16^0 ret_RandomInteger16^post)) (= ret_RandomInteger17^0 ret_RandomInteger17^post)))
    (cfg_trans2 pc^0 l16 pc^post l15 (and (and (and (and (and (and (and (and (and (= Index15^0 Index15^post) (= Inner14^0 Inner14^post)) (= InnerIndex6^0 InnerIndex6^post)) (= InnerIndex9^0 InnerIndex9^post)) (= Outer13^0 Outer13^post)) (= OuterIndex5^0 OuterIndex5^post)) (= OuterIndex8^0 OuterIndex8^post)) (= Seed^0 Seed^post)) (= ret_RandomInteger16^0 ret_RandomInteger16^post)) (= ret_RandomInteger17^0 ret_RandomInteger17^post)))
  )
)
